50
100
100
100
98
97
96
94
93
93
85
85
84
83
83
83
82
79
76
76
76
75
74
73
73
72
68
66
60
60
56
55
53
52
49
47
46
45
42
41
38
37
37
37
36
32
31
31
31
28
24
21
